\ENCODING=ISO-8859-1
\Problem name: 

Minimize
 obj: 490.436933966941 x1_1 + 250.166637813643 x1_2 + 219.473013770657 x1_3
      + 276.904274494065 x2_1 + 131.38108139224 x2_2 + 219.315060043193 x2_3
      + 153.714470710551 x3_1 + 128.093609386829 x3_2 + 64.0959463610294 x3_3
      + 65.0224643873121 x4_1 + 70.1309593399938 x4_2 + 75.1617021630532 x4_3
Subject To
 c1:  x1_1 + x1_2 + x1_3  = 1
 c2:  x2_1 + x2_2 + x2_3  = 1
 c3:  x3_1 + x3_2 + x3_3  = 1
 c4:  x4_1 + x4_2 + x4_3  = 1
 c5:  y1 + y2 + y3  = 1
 c6:  - x1_1 + y1 >= 0
 c7:  - x1_2 + y2 >= 0
 c8:  - x1_3 + y3 >= 0
 c9:  - x2_1 + y1 >= 0
 c10: - x2_2 + y2 >= 0
 c11: - x2_3 + y3 >= 0
 c12: - x3_1 + y1 >= 0
 c13: - x3_2 + y2 >= 0
 c14: - x3_3 + y3 >= 0
 c15: - x4_1 + y1 >= 0
 c16: - x4_2 + y2 >= 0
 c17: - x4_3 + y3 >= 0
Bounds
 0 <= x1_1 <= 1
 0 <= x1_2 <= 1
 0 <= x1_3 <= 1
 0 <= x2_1 <= 1
 0 <= x2_2 <= 1
 0 <= x2_3 <= 1
 0 <= x3_1 <= 1
 0 <= x3_2 <= 1
 0 <= x3_3 <= 1
 0 <= x4_1 <= 1
 0 <= x4_2 <= 1
 0 <= x4_3 <= 1
 0 <= y1 <= 1
 0 <= y2 <= 1
 0 <= y3 <= 1
Binaries
 x1_1  x1_2  x1_3  x2_1  x2_2  x2_3  x3_1  x3_2  x3_3  x4_1  x4_2  x4_3  y1 
 y2  y3 
End
